Version identifier: 12.10.0.0 | 2019-11-26 | 843d4de
CPXPARAM_WorkMem                                 28672
Tried aggregator 2 times.
Aggregator did 45 substitutions.
Reduced MIP has 245 rows, 300 columns, and 1155 nonzeros.
Reduced MIP has 300 binaries, 0 generals, 0 SOSs, and 0 indicators.
Presolve time = 0,00 sec. (1,10 ticks)
Found incumbent of value 1345,000000 after 0,00 sec. (1,80 ticks)
Probing time = 0,00 sec. (0,45 ticks)
Tried aggregator 1 time.
Detecting symmetries...
MIP Presolve eliminated 55 rows and 0 columns.
MIP Presolve added 110 rows and 0 columns.
Reduced MIP has 300 rows, 300 columns, and 1210 nonzeros.
Reduced MIP has 300 binaries, 0 generals, 0 SOSs, and 0 indicators.
Presolve time = 0,00 sec. (1,53 ticks)
Probing time = 0,00 sec. (0,43 ticks)
Clique table members: 795.
MIP emphasis: balance optimality and feasibility.
MIP search method: dynamic search.
Parallel mode: deterministic, using up to 16 threads.
Root relaxation solution time = 0,00 sec. (1,16 ticks)

        Nodes                                         Cuts/
   Node  Left     Objective  IInf  Best Integer    Best Bound    ItCnt     Gap

*     0+    0                         1345,0000        0,0000           100,00%
*     0+    0                          626,0000        0,0000           100,00%
*     0+    0                          583,0000        0,0000           100,00%
      0     0      269,0000   159      583,0000      269,0000      123   53,86%
      0     0      269,0000   159      583,0000     Cuts: 143      157   53,86%
      0     0      269,0000   159      583,0000     Cuts: 128      215   53,86%
      0     0      269,0000   159      583,0000     Cuts: 175      309   53,86%
*     0+    0                          553,0000      269,0000            51,36%
*     0+    0                          526,0000      269,0000            48,86%
      0     2      292,0438   214      526,0000      308,2333      503   41,40%
Elapsed time = 0,14 sec. (77,55 ticks, tree = 0,02 MB, solutions = 5)
   1600   978      492,9238    42      526,0000      398,6139    43523   24,22%
*  2202+ 1237                          514,0000      402,9277            21,61%
   4741  2339      485,4131   116      514,0000      427,5966   125335   16,81%

Performing restart 1

Repeating presolve.
Tried aggregator 1 time.
MIP Presolve eliminated 14 rows and 14 columns.
MIP Presolve added 8 rows and 0 columns.
MIP Presolve modified 32 coefficients.
Reduced MIP has 294 rows, 286 columns, and 1125 nonzeros.
Reduced MIP has 286 binaries, 0 generals, 0 SOSs, and 0 indicators.
Presolve time = 0,00 sec. (1,05 ticks)
Tried aggregator 1 time.
Reduced MIP has 294 rows, 286 columns, and 1125 nonzeros.
Reduced MIP has 286 binaries, 0 generals, 0 SOSs, and 0 indicators.
Presolve time = 0,00 sec. (0,94 ticks)
Represolve time = 0,01 sec. (6,52 ticks)
   4816     0      299,3571   168      514,0000       Cuts: 7   149503   13,89%
   4816     0      305,3805   168      514,0000       Cuts: 7   149549   13,89%
   4816     0      309,7094   168      514,0000      Cuts: 12   149600   13,89%
   4816     0      312,3758   168      514,0000      Cuts: 10   149661   13,89%
   4817     3      318,3579   279      514,0000      442,5881   149864   13,89%
   5842   666      491,3100    93      514,0000      442,5881   178755   13,89%
   8792  2408      504,4364   135      514,0000      442,5881   271358   13,89%
  11047  3659      502,5030   150      514,0000      442,5881   340665   13,89%

Performing restart 2

Repeating presolve.
Tried aggregator 1 time.
Reduced MIP has 294 rows, 286 columns, and 1125 nonzeros.
Reduced MIP has 286 binaries, 0 generals, 0 SOSs, and 0 indicators.
Presolve time = 0,00 sec. (0,67 ticks)
Tried aggregator 1 time.
Reduced MIP has 294 rows, 286 columns, and 1125 nonzeros.
Reduced MIP has 286 binaries, 0 generals, 0 SOSs, and 0 indicators.
Presolve time = 0,00 sec. (0,94 ticks)
Represolve time = 0,02 sec. (15,13 ticks)
  11063     0      314,9089   285      514,0000      Cuts: 12   358810   13,89%
  11063     0      315,6103   285      514,0000       Cuts: 5   358859   13,89%
  11063     0      315,8950   285      514,0000       Cuts: 3   358876   13,89%
  11063     0      316,1088   285      514,0000       Cuts: 4   358913   13,89%
  11063     0      316,3806   285      514,0000       Cuts: 4   358952   13,89%
  11063     0      316,5518   285      514,0000       Cuts: 3   358972   13,89%
  11063     2      316,5518   286      514,0000      442,5881   358972   13,89%
  13764  1576      504,5826   100      514,0000      442,5881   443697   13,89%
  16776  2409        cutoff            514,0000      464,2502   551812    9,68%

Clique cuts applied:  56
Cover cuts applied:  392
Mixed integer rounding cuts applied:  8
Zero-half cuts applied:  10
Gomory fractional cuts applied:  24

Root node processing (before b&c):
  Real time             =    0,14 sec. (77,31 ticks)
Parallel b&c, 16 threads:
  Real time             =    3,46 sec. (2802,56 ticks)
  Sync time (average)   =    0,82 sec.
  Wait time (average)   =    0,01 sec.
                          ------------
Total (root+branch&cut) =    3,60 sec. (2879,87 ticks)
